\ Problem written by TinyHiGHS
Maximize
 obj: +0.245460606060606 c43 +0.423892848469884 c44 +1.1611147624017955 c45 +0.24231021324354657 c46 +0.3671857837635614 c47 +0.8485057987280209 c48 +0.4691384780695847 c49 +0.5950341817882528 c50 +1.0221074448185559 c51 +0.4691384780695847 c52 +0.6446603635914702 c53 +0.8140014964459409 c54 +0.4691384780695847 c55 +0.9844227579797978 c56 +1.4418598010175832 c57 +0.5442078563411896 c58 +0.6985471126374859 c59 +1.8372491074298543 c60 +0.6113562109539843 c61 +0.8180219857538346 c62 +2.1617095578451173 c63 +0.245460606060606 c64 +0.423892848469884 c65 +1.1611147624017955 c66 +0.24231021324354657 c67 +0.3671857837635614 c68 +0.8485057987280209 c69 +0.4691384780695847 c70 +0.5950341817882528 c71 +1.0221074448185559 c72 +0.4691384780695847 c73 +0.6446603635914702 c74 +0.8140014964459409 c75 +0.4691384780695847 c76 +0.9844227579797978 c77 +1.4418598010175832 c78 +0.5442078563411896 c79 +0.6985471126374859 c80 +1.8372491074298543 c81 +0.6113562109539843 c82 +0.8180219857538346 c83 +2.1617095578451173 c84 +1.0 c106
Subject To
 r0: -1.0 c0 +1.0 c1 +3.0 c22 = 0.00702
 r1: -1.0 c1 +1.0 c2 +8.0 c23 = 0.01872
 r2: -1.0 c2 +1.0 c3 +13.0 c24 = 0.030420000000000003
 r3: -1.0 c3 +1.0 c4 +3.0 c25 = 0.006804
 r4: -1.0 c4 +1.0 c5 +8.0 c26 = 0.018144
 r5: -1.0 c5 +1.0 c6 +13.0 c27 = 0.029484
 r6: -1.0 c6 +1.0 c7 +6.0 c28 = 0.01728
 r7: -1.0 c7 +1.0 c8 +8.0 c29 = 0.02304
 r8: -1.0 c8 +1.0 c9 +10.0 c30 = 0.028800000000000003
 r9: -1.0 c9 +1.0 c10 +6.0 c31 = 0.021384
 r10: -1.0 c10 +1.0 c11 +8.0 c32 = 0.028512
 r11: -1.0 c11 +1.0 c12 +10.0 c33 = 0.03564
 r12: -1.0 c12 +1.0 c13 +6.0 c34 = 0.026352
 r13: -1.0 c13 +1.0 c14 +8.0 c35 = 0.035136
 r14: -1.0 c14 +1.0 c15 +10.0 c36 = 0.04392
 r15: -1.0 c15 +1.0 c16 +6.0 c37 = 0.028944
 r16: -1.0 c16 +1.0 c17 +8.0 c38 = 0.038592
 r17: -1.0 c17 +1.0 c18 +10.0 c39 = 0.048240000000000005
 r18: -1.0 c18 +1.0 c19 +6.0 c40 = 0.03563999999999999
 r19: -1.0 c19 +1.0 c20 +8.0 c41 = 0.04751999999999999
 r20: -1.0 c20 +1.0 c21 +10.0 c42 = 0.059399999999999994
 r21: -1.0 c22 +1.0 c43 +1.0 c64 +1.0 c85 = 0.0
 r22: -1.0 c23 +1.0 c44 +1.0 c65 +1.0 c86 = 0.0
 r23: -1.0 c24 +1.0 c45 +1.0 c66 +1.0 c87 = 0.0
 r24: -1.0 c25 +1.0 c46 +1.0 c67 +1.0 c88 = 0.0
 r25: -1.0 c26 +1.0 c47 +1.0 c68 +1.0 c89 = 0.0
 r26: -1.0 c27 +1.0 c48 +1.0 c69 +1.0 c90 = 0.0
 r27: -1.0 c28 +1.0 c49 +1.0 c70 +1.0 c91 = 0.0
 r28: -1.0 c29 +1.0 c50 +1.0 c71 +1.0 c92 = 0.0
 r29: -1.0 c30 +1.0 c51 +1.0 c72 +1.0 c93 = 0.0
 r30: -1.0 c31 +1.0 c52 +1.0 c73 +1.0 c94 = 0.0
 r31: -1.0 c32 +1.0 c53 +1.0 c74 +1.0 c95 = 0.0
 r32: -1.0 c33 +1.0 c54 +1.0 c75 +1.0 c96 = 0.0
 r33: -1.0 c34 +1.0 c55 +1.0 c76 +1.0 c97 = 0.0
 r34: -1.0 c35 +1.0 c56 +1.0 c77 +1.0 c98 = 0.0
 r35: -1.0 c36 +1.0 c57 +1.0 c78 +1.0 c99 = 0.0
 r36: -1.0 c37 +1.0 c58 +1.0 c79 +1.0 c100 = 0.0
 r37: -1.0 c38 +1.0 c59 +1.0 c80 +1.0 c101 = 0.0
 r38: -1.0 c39 +1.0 c60 +1.0 c81 +1.0 c102 = 0.0
 r39: -1.0 c40 +1.0 c61 +1.0 c82 +1.0 c103 = 0.0
 r40: -1.0 c41 +1.0 c62 +1.0 c83 +1.0 c104 = 0.0
 r41: -1.0 c42 +1.0 c63 +1.0 c84 +1.0 c105 = 0.0
 r42: -0.21556599102583882 c21 +1.0 c106 <= 5.6226658
 r43: -0.2126746528307644 c21 +1.0 c106 <= 5.624534471875477
 r44: -0.20692490974729344 c21 +1.0 c106 <= 5.632018337472922
 r45: -0.20102351716961425 c21 +1.0 c106 <= 5.643786304412073
 r46: -0.19848243412798233 c21 +1.0 c106 <= 5.650074468506895
 r47: -0.19467854206631785 c21 +1.0 c106 <= 5.660093920197319
 r48: -0.191230796335447 c21 +1.0 c106 <= 5.670433364869628
 r49: -0.18693859154929723 c21 +1.0 c106 <= 5.684523385521121
 r50: -0.18252262133260208 c21 +1.0 c106 <= 5.700587360378393
 r51: -0.1781271716469768 c21 +1.0 c106 <= 5.71817970820014
 r52: -0.1737785936176221 c21 +1.0 c106 <= 5.736835977661678
 r53: -0.1690625727590215 c21 +1.0 c106 <= 5.758738593335276
 r54: -0.1648008171603685 c21 +1.0 c106 <= 5.7799958040857975
 r55: -0.16046512985118067 c21 +1.0 c106 <= 5.8028951701780045
 r56: -0.15589813769751934 c21 +1.0 c106 <= 5.828581304147842
 r57: -0.1515159519725542 c21 +1.0 c106 <= 5.8547810779416904
 r58: -0.1473311977715868 c21 +1.0 c106 <= 5.881020323732597
 r59: -0.14246423601447467 c21 +1.0 c106 <= 5.913284386612844
 r60: -0.1382842256557642 c21 +1.0 c106 <= 5.942496389004692
 r61: -0.1340763948497872 c21 +1.0 c106 <= 5.973073853905566
 r62: -0.12933467510063237 c21 +1.0 c106 <= 6.009188214031054
 r63: -0.1250699276610383 c21 +1.0 c106 <= 6.043153089114725
 r64: -0.12091085809497426 c21 +1.0 c106 <= 6.077483712940844
 r65: -0.11613460988854103 c21 +1.0 c106 <= 6.118628703115164
 r66: -0.11204477089891615 c21 +1.0 c106 <= 6.155291655753756
 r67: -0.10779728982300839 c21 +1.0 c106 <= 6.194582129950226
 r68: -0.10282603784241587 c21 +1.0 c106 <= 6.242365306862483
 r69: -0.09837934525818676 c21 +1.0 c106 <= 6.286681045156911
 r70: -0.09325505842120092 c21 +1.0 c106 <= 6.33926801396411
 r71: -0.08762000746547363 c21 +1.0 c106 <= 6.399073936767435
 r72: -0.0847106598984792 c21 +1.0 c106 <= 6.430730838578659
 r73: -0.08072618207480527 c21 +1.0 c106 <= 6.474400317078342
 r74: -0.07451759953837248 c21 +1.0 c106 <= 6.544205273110217
 r75: -0.07127958740499214 c21 +1.0 c106 <= 6.5811723624321665
 r76: -0.0628010186757224 c21 +1.0 c106 <= 6.679530542546679
 r77: -0.054179045092841056 c21 +1.0 c106 <= 6.782091504907128
 r78: -0.04998448860881864 c21 +1.0 c106 <= 6.8326195517693105
 r79: -0.039621785173981135 c21 +1.0 c106 <= 6.959587539334313
 r80: -0.036063728813561194 c21 +1.0 c106 <= 7.003887831660994
 r81: -0.025645352669742664 c21 +1.0 c106 <= 7.135140617996049
 r82: -0.015269152934374076 c21 +1.0 c106 <= 7.269010196501879
 r83: -1.7679963319475727e-5 c21 +1.0 c106 <= 7.4710540846859255
 r84: +1.0 c21 >= -Inf
 r85: +1.0 c21 >= 0.0
 r86: +1.0 c21 <= 18.7
 r87: +1.0 c21 >= -Inf
Bounds
 c0 = 12.46
 0.0 <= c1 <= 12.46
 0.0 <= c2 <= 12.46
 0.0 <= c3 <= 12.57
 0.0 <= c4 <= 12.57
 0.0 <= c5 <= 12.57
 0.0 <= c6 <= 12.68
 0.0 <= c7 <= 12.68
 0.0 <= c8 <= 12.68
 0.0 <= c9 <= 12.76
 0.0 <= c10 <= 12.76
 0.0 <= c11 <= 12.76
 0.0 <= c12 <= 12.85
 0.0 <= c13 <= 12.85
 0.0 <= c14 <= 12.85
 0.0 <= c15 <= 12.96
 0.0 <= c16 <= 12.96
 0.0 <= c17 <= 12.96
 0.0 <= c18 <= 13.1
 0.0 <= c19 <= 13.1
 0.0 <= c20 <= 13.1
 0.0 <= c21 <= 13.26
 0.0 <= c22 <= 0.006228
 0.0 <= c23 <= 0.006228
 0.0 <= c24 <= 0.006228
 0.0 <= c25 <= 0.006228
 0.0 <= c26 <= 0.006228
 0.0 <= c27 <= 0.006228
 0.0 <= c28 <= 0.006228
 0.0 <= c29 <= 0.006228
 0.0 <= c30 <= 0.006228
 0.0 <= c31 <= 0.006228
 0.0 <= c32 <= 0.006228
 0.0 <= c33 <= 0.006228
 0.0 <= c34 <= 0.006228
 0.0 <= c35 <= 0.006228
 0.0 <= c36 <= 0.006228
 0.0 <= c37 <= 0.006228
 0.0 <= c38 <= 0.006228
 0.0 <= c39 <= 0.006228
 0.0 <= c40 <= 0.006228
 0.0 <= c41 <= 0.006228
 0.0 <= c42 <= 0.006228
 0.0 <= c43 <= 0.006228
 0.0 <= c44 <= 0.006228
 0.0 <= c45 <= 0.006228
 0.0 <= c46 <= 0.006228
 0.0 <= c47 <= 0.006228
 0.0 <= c48 <= 0.006228
 0.0 <= c49 <= 0.006228
 0.0 <= c50 <= 0.006228
 0.0 <= c51 <= 0.006228
 0.0 <= c52 <= 0.006228
 0.0 <= c53 <= 0.006228
 0.0 <= c54 <= 0.006228
 0.0 <= c55 <= 0.006228
 0.0 <= c56 <= 0.006228
 0.0 <= c57 <= 0.006228
 0.0 <= c58 <= 0.006228
 0.0 <= c59 <= 0.006228
 0.0 <= c60 <= 0.006228
 0.0 <= c61 <= 0.006228
 0.0 <= c62 <= 0.006228
 0.0 <= c63 <= 0.006228
 c64 = 0.0
 c65 = 0.0
 c66 = 0.0
 c67 = 0.0
 c68 = 0.0
 c69 = 0.0
 c70 = 0.0
 c71 = 0.0
 c72 = 0.0
 c73 = 0.0
 c74 = 0.0
 c75 = 0.0
 c76 = 0.0
 c77 = 0.0
 c78 = 0.0
 c79 = 0.0
 c80 = 0.0
 c81 = 0.0
 c82 = 0.0
 c83 = 0.0
 c84 = 0.0
 c85 = 0.0
 c86 = 0.0
 c87 = 0.0
 c88 = 0.0
 c89 = 0.0
 c90 = 0.0
 c91 = 0.0
 c92 = 0.0
 c93 = 0.0
 c94 = 0.0
 c95 = 0.0
 c96 = 0.0
 c97 = 0.0
 c98 = 0.0
 c99 = 0.0
 c100 = 0.0
 c101 = 0.0
 c102 = 0.0
 c103 = 0.0
 c104 = 0.0
 c105 = 0.0
 c106 free
End
